Instance name:    bar-n100-5
Authors:          PDPTW Solver
Date:             2025-11-20
Reference:        LNS with SA/RTR
Solution
Route 1 : 3 53 15 11 65 50 36 100 86 61 42 92 23 17 67 73
Route 2 : 13 63 12 62 29 6 56 20 79 4 54 70 33 83
Route 3 : 28 78 22 46 30 80 72 96 14 64 21 71
Route 4 : 47 34 84 16 97 49 35 85 66 32 82 39 99 89
Route 5 : 44 18 27 77 68 5 94 10 60 55 9 59 7 43 93 57
Route 6 : 40 48 98 24 90 26 76 41 74 91 38 88 31 81
Route 7 : 37 87 45 95 25 19 69 75 1 2 52 51 8 58
